data;


set DEMANDES :=
D1
D2;

set FLUIDES :=
F1
F2;

set MAGASINS :=
M1
M2
M3;

param COMMANDES: F1 F2 :=
D1 2 0
D2 1 3;

param STOCKS: F1 F2 :=
M1 2.5 1
M2 1 2
M3 2 1;

param COUTSFIXE: M1 M2 M3 :=
D1 110 90 100
D2 110 90 100;

param COUTSVAR: M1 M2 M3 :=
D1 10 1 5
D2 2 20 10;
 

end;